0000000000000000
0110000000000000
0110000000000000
0110000000000000
0110000000000000
0111111110000000
0111111110000000
0000000110000000
0000000110000000
0000001110000000
0000001100000000
0000011100000000
0000011000000000
0000011000000000
0000011000000000
0000011000000000
